; Options: -in -smt2
(set-option :produce-unsat-assumptions true)

(declare-fun start!2823 () Bool)

(assert start!2823)

(declare-fun res!12297 () Bool)

(declare-fun e!8779 () Bool)

(assert (=> start!2823 (=> (not res!12297) (not e!8779))))

(declare-fun jz!49 () (_ BitVec 32))

(assert (=> start!2823 (= res!12297 (and (bvsle #b00000000000000000000000000000010 jz!49) (bvslt jz!49 #b00000000000000000000000000010011)))))

(assert (=> start!2823 e!8779))

(assert (=> start!2823 true))

(declare-datatypes ((array!1262 0))(
  ( (array!1263 (arr!555 (Array (_ BitVec 32) (_ BitVec 32))) (size!555 (_ BitVec 32))) )
))
(declare-fun iq!146 () array!1262)

(declare-fun array_inv!503 (array!1262) Bool)

(assert (=> start!2823 (array_inv!503 iq!146)))

(declare-datatypes ((array!1264 0))(
  ( (array!1265 (arr!556 (Array (_ BitVec 32) (_ FloatingPoint 11 53))) (size!556 (_ BitVec 32))) )
))
(declare-fun q!79 () array!1264)

(declare-fun array_inv!504 (array!1264) Bool)

(assert (=> start!2823 (array_inv!504 q!79)))

(declare-fun b!15740 () Bool)

(declare-fun j!78 () (_ BitVec 32))

(assert (=> b!15740 (= e!8779 (and (bvsgt j!78 #b00000000000000000000000000000000) (let ((ix!183 (bvsub jz!49 j!78))) (or (bvslt ix!183 #b00000000000000000000000000000000) (bvsge ix!183 (size!555 iq!146))))))))

(declare-fun b!15738 () Bool)

(declare-fun res!12300 () Bool)

(assert (=> b!15738 (=> (not res!12300) (not e!8779))))

(declare-fun z!100 () (_ FloatingPoint 11 53))

(assert (=> b!15738 (= res!12300 (and (bvsle #b00000000000000000000000000000000 j!78) (bvsle j!78 jz!49) (fp.leq (fp #b0 #b00000000000 #b0000000000000000000000000000000000000000000000000000) z!100) (fp.leq z!100 (fp #b0 #b10000110001 #b0100000000000000000000010011111111111111111111111100))))))

(declare-fun b!15737 () Bool)

(declare-fun res!12299 () Bool)

(assert (=> b!15737 (=> (not res!12299) (not e!8779))))

(declare-fun qInv!0 (array!1264) Bool)

(assert (=> b!15737 (= res!12299 (qInv!0 q!79))))

(declare-fun b!15739 () Bool)

(declare-fun res!12298 () Bool)

(assert (=> b!15739 (=> (not res!12298) (not e!8779))))

(declare-fun iqInv!0 (array!1262) Bool)

(assert (=> b!15739 (= res!12298 (iqInv!0 iq!146))))

(assert (= (and start!2823 res!12297) b!15737))

(assert (= (and b!15737 res!12299) b!15738))

(assert (= (and b!15738 res!12300) b!15739))

(assert (= (and b!15739 res!12298) b!15740))

(declare-fun m!23835 () Bool)

(assert (=> start!2823 m!23835))

(declare-fun m!23837 () Bool)

(assert (=> start!2823 m!23837))

(declare-fun m!23839 () Bool)

(assert (=> b!15737 m!23839))

(declare-fun m!23841 () Bool)

(assert (=> b!15739 m!23841))

(check-sat (not b!15737) (not start!2823) (not b!15739))
(check-sat)
(get-model)

(declare-fun d!6517 () Bool)

(declare-fun res!12303 () Bool)

(declare-fun e!8784 () Bool)

(assert (=> d!6517 (=> (not res!12303) (not e!8784))))

(assert (=> d!6517 (= res!12303 (= (size!556 q!79) #b00000000000000000000000000010100))))

(assert (=> d!6517 (= (qInv!0 q!79) e!8784)))

(declare-fun b!15743 () Bool)

(declare-fun lambda!683 () Int)

(declare-fun all20!0 (array!1264 Int) Bool)

(assert (=> b!15743 (= e!8784 (all20!0 q!79 lambda!683))))

(assert (= (and d!6517 res!12303) b!15743))

(declare-fun m!23843 () Bool)

(assert (=> b!15743 m!23843))

(assert (=> b!15737 d!6517))

(declare-fun d!6519 () Bool)

(assert (=> d!6519 (= (array_inv!503 iq!146) (bvsge (size!555 iq!146) #b00000000000000000000000000000000))))

(assert (=> start!2823 d!6519))

(declare-fun d!6521 () Bool)

(assert (=> d!6521 (= (array_inv!504 q!79) (bvsge (size!556 q!79) #b00000000000000000000000000000000))))

(assert (=> start!2823 d!6521))

(declare-fun d!6523 () Bool)

(declare-fun res!12306 () Bool)

(declare-fun e!8787 () Bool)

(assert (=> d!6523 (=> (not res!12306) (not e!8787))))

(assert (=> d!6523 (= res!12306 (= (size!555 iq!146) #b00000000000000000000000000010100))))

(assert (=> d!6523 (= (iqInv!0 iq!146) e!8787)))

(declare-fun b!15746 () Bool)

(declare-fun lambda!686 () Int)

(declare-fun all20Int!0 (array!1262 Int) Bool)

(assert (=> b!15746 (= e!8787 (all20Int!0 iq!146 lambda!686))))

(assert (= (and d!6523 res!12306) b!15746))

(declare-fun m!23845 () Bool)

(assert (=> b!15746 m!23845))

(assert (=> b!15739 d!6523))

(check-sat (not b!15746) (not b!15743))
(check-sat)
